# Solution for model count
# Objective value = 9
z#1 0
z#2 0
z#3 1
z#4 0
z#5 0
z#6 1
z#7 1
z#8 0
z#9 0
z#10 0
z#11 0
z#12 0
z#13 0
z#14 0
z#15 1
z#16 0
z#17 0
z#18 1
z#19 1
z#20 1
z#21 1
z#22 0
z#23 1
z#24 0
x#24 0
x#23 1255
x#22 0
x#21 385
x#20 898
x#19 1581
x#18 2216
x#17 0
x#16 0
x#15 641
x#14 0
x#13 0
x#12 0
x#11 0
x#10 0
x#9 0
x#8 0
x#7 1423
x#6 1127
x#5 0
x#4 0
x#3 474
x#2 0
x#1 0
